NAME : U159B.50494.tour
COMMENT : Cost = 0_50494
COMMENT : Found by LKH [Keld Helsgaun] Sun Sep 17 16:52:43 2017
TYPE : TOUR
DIMENSION : 159
TOUR_SECTION
1
3
6
153
152
7
8
11
143
145
141
139
136
135
41
42
44
45
47
46
48
91
94
95
96
100
107
106
105
104
103
102
101
99
98
87
83
80
78
72
71
70
69
68
67
66
65
64
55
56
57
58
59
60
61
62
63
54
53
52
51
49
50
75
74
73
76
77
79
81
82
84
85
86
97
88
89
90
92
93
118
116
115
114
113
112
111
110
109
108
117
119
120
121
122
123
43
40
39
38
36
37
34
33
35
138
137
133
134
132
131
128
130
124
129
127
125
126
158
157
156
154
150
149
9
10
12
13
14
15
16
17
18
21
20
19
22
23
24
25
26
27
28
29
30
31
32
140
142
144
146
147
148
151
155
5
4
2
159
-1
EOF
